0, 2456, 2140.69, 1856
1, 2398, 2011.37, 1720
2, 2211, 1933.69, 1572
3, 2084, 1836.34, 1568
4, 2035, 1747.19, 1563
5, 1853, 1648.08, 1554
6, 1800, 1581.78, 1510
7, 1727, 1572.94, 1510
8, 1809, 1561.65, 1440
9, 1744, 1542.5, 1404
